p cnf 430 1488
-191 170 0
-191 -157 0
-191 190 0
-191 -79 0
-191 164 0
191 -170 157 -190 79 -164 0
-192 28 0
-192 -64 0
-192 183 0
-192 -54 0
-192 -12 0
192 -28 64 -183 54 12 0
-193 -27 0
-193 38 0
-193 122 0
-193 -20 0
-193 -163 0
193 27 -38 -122 20 163 0
-194 179 0
-194 122 0
-194 5 0
-194 -145 0
-194 -118 0
194 -179 -122 -5 145 118 0
-195 -54 0
-195 -60 0
-195 38 0
-195 140 0
-195 29 0
195 54 60 -38 -140 -29 0
191 192 193 194 195 0
-196 69 0
-196 70 0
-196 -120 0
-196 185 0
-196 78 0
196 -69 -70 120 -185 -78 0
-197 7 0
-197 -2 0
-197 34 0
-197 169 0
-197 155 0
197 -7 2 -34 -169 -155 0
-198 136 0
-198 -1 0
-198 -120 0
-198 28 0
-198 19 0
198 -136 1 120 -28 -19 0
-199 160 0
-199 14 0
-199 113 0
-199 84 0
-199 143 0
199 -160 -14 -113 -84 -143 0
-200 90 0
-200 10 0
-200 -36 0
-200 77 0
-200 169 0
200 -90 -10 36 -77 -169 0
196 197 198 199 200 0
-201 113 0
-201 -167 0
-201 -112 0
-201 125 0
-201 -105 0
201 -113 167 112 -125 105 0
-202 -50 0
-202 -13 0
-202 -140 0
-202 -62 0
-202 -70 0
202 50 13 140 62 70 0
-203 21 0
-203 56 0
-203 -2 0
-203 73 0
-203 -156 0
203 -21 -56 2 -73 156 0
-204 127 0
-204 -168 0
-204 38 0
-204 119 0
-204 68 0
204 -127 168 -38 -119 -68 0
-205 77 0
-205 -165 0
-205 -109 0
-205 64 0
-205 133 0
205 -77 165 109 -64 -133 0
201 202 203 204 205 0
-206 -159 0
-206 -124 0
-206 137 0
-206 -16 0
-206 104 0
206 159 124 -137 16 -104 0
-207 -148 0
-207 -69 0
-207 -33 0
-207 -165 0
-207 55 0
207 148 69 33 165 -55 0
-208 -151 0
-208 171 0
-208 147 0
-208 -128 0
-208 129 0
208 151 -171 -147 128 -129 0
-209 55 0
-209 152 0
-209 28 0
-209 10 0
-209 -40 0
209 -55 -152 -28 -10 40 0
-210 -153 0
-210 -62 0
-210 39 0
-210 2 0
-210 130 0
210 153 62 -39 -2 -130 0
206 207 208 209 210 0
-211 -17 0
-211 -85 0
-211 -168 0
-211 108 0
-211 40 0
211 17 85 168 -108 -40 0
-212 67 0
-212 31 0
-212 158 0
-212 -92 0
-212 138 0
212 -67 -31 -158 92 -138 0
-213 92 0
-213 -150 0
-213 -104 0
-213 175 0
-213 -176 0
213 -92 150 104 -175 176 0
-214 -140 0
-214 -164 0
-214 155 0
-214 94 0
-214 16 0
214 140 164 -155 -94 -16 0
-215 85 0
-215 54 0
-215 -107 0
-215 -43 0
-215 -102 0
215 -85 -54 107 43 102 0
211 212 213 214 215 0
-216 3 0
-216 16 0
-216 68 0
-216 -19 0
-216 163 0
216 -3 -16 -68 19 -163 0
-217 -95 0
-217 -71 0
-217 23 0
-217 8 0
-217 179 0
217 95 71 -23 -8 -179 0
-218 148 0
-218 -75 0
-218 -183 0
-218 -124 0
-218 -63 0
218 -148 75 183 124 63 0
-219 -182 0
-219 -167 0
-219 -166 0
-219 -185 0
-219 -136 0
219 182 167 166 185 136 0
-220 51 0
-220 143 0
-220 37 0
-220 -16 0
-220 8 0
220 -51 -143 -37 16 -8 0
216 217 218 219 220 0
-221 -5 0
-221 78 0
-221 82 0
-221 -127 0
-221 175 0
221 5 -78 -82 127 -175 0
-222 60 0
-222 177 0
-222 15 0
-222 -85 0
-222 134 0
222 -60 -177 -15 85 -134 0
-223 98 0
-223 174 0
-223 152 0
-223 -89 0
-223 -76 0
223 -98 -174 -152 89 76 0
-224 81 0
-224 177 0
-224 -176 0
-224 -146 0
-224 -72 0
224 -81 -177 176 146 72 0
-225 -177 0
-225 69 0
-225 -97 0
-225 148 0
-225 67 0
225 177 -69 97 -148 -67 0
221 222 223 224 225 0
-226 25 0
-226 70 0
-226 20 0
-226 101 0
-226 81 0
226 -25 -70 -20 -101 -81 0
-227 25 0
-227 162 0
-227 -125 0
-227 -101 0
-227 -43 0
227 -25 -162 125 101 43 0
-228 142 0
-228 113 0
-228 -16 0
-228 151 0
-228 -128 0
228 -142 -113 16 -151 128 0
-229 130 0
-229 -22 0
-229 -122 0
-229 -110 0
-229 -105 0
229 -130 22 122 110 105 0
-230 -189 0
-230 67 0
-230 49 0
-230 -41 0
-230 64 0
230 189 -67 -49 41 -64 0
226 227 228 229 230 0
-231 102 0
-231 170 0
-231 -133 0
-231 88 0
-231 -185 0
231 -102 -170 133 -88 185 0
-232 -55 0
-232 -11 0
-232 -12 0
-232 173 0
-232 152 0
232 55 11 12 -173 -152 0
-233 50 0
-233 -92 0
-233 -91 0
-233 85 0
-233 -42 0
233 -50 92 91 -85 42 0
-234 176 0
-234 34 0
-234 -187 0
-234 -24 0
-234 -101 0
234 -176 -34 187 24 101 0
-235 64 0
-235 54 0
-235 56 0
-235 151 0
-235 -39 0
235 -64 -54 -56 -151 39 0
231 232 233 234 235 0
-236 160 0
-236 38 0
-236 131 0
-236 157 0
-236 34 0
236 -160 -38 -131 -157 -34 0
-237 182 0
-237 100 0
-237 -5 0
-237 -88 0
-237 -58 0
237 -182 -100 5 88 58 0
-238 116 0
-238 -66 0
-238 -144 0
-238 -57 0
-238 188 0
238 -116 66 144 57 -188 0
-239 133 0
-239 187 0
-239 -181 0
-239 33 0
-239 103 0
239 -133 -187 181 -33 -103 0
-240 -22 0
-240 174 0
-240 -34 0
-240 73 0
-240 37 0
240 22 -174 34 -73 -37 0
236 237 238 239 240 0
-241 -95 0
-241 -181 0
-241 177 0
-241 87 0
-241 18 0
241 95 181 -177 -87 -18 0
-242 150 0
-242 38 0
-242 98 0
-242 -158 0
-242 43 0
242 -150 -38 -98 158 -43 0
-243 20 0
-243 -134 0
-243 64 0
-243 -124 0
-243 -70 0
243 -20 134 -64 124 70 0
-244 62 0
-244 -123 0
-244 75 0
-244 115 0
-244 36 0
244 -62 123 -75 -115 -36 0
-245 86 0
-245 63 0
-245 -56 0
-245 7 0
-245 65 0
245 -86 -63 56 -7 -65 0
241 242 243 244 245 0
-246 22 0
-246 50 0
-246 43 0
-246 184 0
-246 -103 0
246 -22 -50 -43 -184 103 0
-247 -92 0
-247 162 0
-247 -83 0
-247 -101 0
-247 48 0
247 92 -162 83 101 -48 0
-248 -70 0
-248 52 0
-248 -73 0
-248 -106 0
-248 -157 0
248 70 -52 73 106 157 0
-249 83 0
-249 156 0
-249 58 0
-249 189 0
-249 99 0
249 -83 -156 -58 -189 -99 0
-250 79 0
-250 -150 0
-250 -37 0
-250 148 0
-250 170 0
250 -79 150 37 -148 -170 0
246 247 248 249 250 0
-251 -15 0
-251 -33 0
-251 114 0
-251 -100 0
-251 -188 0
251 15 33 -114 100 188 0
-252 -75 0
-252 120 0
-252 118 0
-252 190 0
-252 71 0
252 75 -120 -118 -190 -71 0
-253 -56 0
-253 -131 0
-253 -6 0
-253 44 0
-253 88 0
253 56 131 6 -44 -88 0
-254 -121 0
-254 41 0
-254 167 0
-254 57 0
-254 65 0
254 121 -41 -167 -57 -65 0
-255 33 0
-255 -13 0
-255 30 0
-255 169 0
-255 -104 0
255 -33 13 -30 -169 104 0
251 252 253 254 255 0
-256 -44 0
-256 -117 0
-256 74 0
-256 177 0
-256 42 0
256 44 117 -74 -177 -42 0
-257 169 0
-257 114 0
-257 -13 0
-257 126 0
-257 -38 0
257 -169 -114 13 -126 38 0
-258 -160 0
-258 -59 0
-258 162 0
-258 40 0
-258 -2 0
258 160 59 -162 -40 2 0
-259 53 0
-259 24 0
-259 126 0
-259 12 0
-259 -101 0
259 -53 -24 -126 -12 101 0
-260 -83 0
-260 124 0
-260 -157 0
-260 32 0
-260 17 0
260 83 -124 157 -32 -17 0
256 257 258 259 260 0
-261 59 0
-261 44 0
-261 147 0
-261 -38 0
-261 106 0
261 -59 -44 -147 38 -106 0
-262 44 0
-262 36 0
-262 -95 0
-262 145 0
-262 -112 0
262 -44 -36 95 -145 112 0
-263 -158 0
-263 -150 0
-263 62 0
-263 86 0
-263 -17 0
263 158 150 -62 -86 17 0
-264 -129 0
-264 -31 0
-264 77 0
-264 24 0
-264 -154 0
264 129 31 -77 -24 154 0
-265 -74 0
-265 113 0
-265 104 0
-265 146 0
-265 -133 0
265 74 -113 -104 -146 133 0
261 262 263 264 265 0
-266 20 0
-266 -14 0
-266 63 0
-266 170 0
-266 89 0
266 -20 14 -63 -170 -89 0
-267 87 0
-267 -83 0
-267 150 0
-267 82 0
-267 164 0
267 -87 83 -150 -82 -164 0
-268 60 0
-268 149 0
-268 -94 0
-268 44 0
-268 -167 0
268 -60 -149 94 -44 167 0
-269 170 0
-269 74 0
-269 144 0
-269 43 0
-269 67 0
269 -170 -74 -144 -43 -67 0
-270 96 0
-270 161 0
-270 -69 0
-270 168 0
-270 144 0
270 -96 -161 69 -168 -144 0
266 267 268 269 270 0
-271 164 0
-271 70 0
-271 80 0
-271 112 0
-271 -55 0
271 -164 -70 -80 -112 55 0
-272 -44 0
-272 93 0
-272 140 0
-272 9 0
-272 145 0
272 44 -93 -140 -9 -145 0
-273 19 0
-273 1 0
-273 67 0
-273 44 0
-273 -131 0
273 -19 -1 -67 -44 131 0
-274 170 0
-274 173 0
-274 -77 0
-274 -177 0
-274 -153 0
274 -170 -173 77 177 153 0
-275 62 0
-275 -122 0
-275 -82 0
-275 -128 0
-275 -177 0
275 -62 122 82 128 177 0
271 272 273 274 275 0
-276 -111 0
-276 91 0
-276 56 0
-276 -134 0
-276 58 0
276 111 -91 -56 134 -58 0
-277 -104 0
-277 128 0
-277 -106 0
-277 48 0
-277 114 0
277 104 -128 106 -48 -114 0
-278 87 0
-278 154 0
-278 -124 0
-278 -8 0
-278 73 0
278 -87 -154 124 8 -73 0
-279 79 0
-279 -182 0
-279 42 0
-279 -18 0
-279 132 0
279 -79 182 -42 18 -132 0
-280 4 0
-280 11 0
-280 179 0
-280 144 0
-280 95 0
280 -4 -11 -179 -144 -95 0
276 277 278 279 280 0
-281 -43 0
-281 109 0
-281 -92 0
-281 -182 0
-281 148 0
281 43 -109 92 182 -148 0
-282 85 0
-282 126 0
-282 127 0
-282 -35 0
-282 33 0
282 -85 -126 -127 35 -33 0
-283 133 0
-283 45 0
-283 134 0
-283 120 0
-283 -147 0
283 -133 -45 -134 -120 147 0
-284 73 0
-284 150 0
-284 -143 0
-284 -104 0
-284 71 0
284 -73 -150 143 104 -71 0
-285 136 0
-285 -181 0
-285 95 0
-285 -166 0
-285 169 0
285 -136 181 -95 166 -169 0
281 282 283 284 285 0
-286 -163 0
-286 -66 0
-286 -149 0
-286 -137 0
-286 79 0
286 163 66 149 137 -79 0
-287 -180 0
-287 -105 0
-287 -53 0
-287 158 0
-287 -7 0
287 180 105 53 -158 7 0
-288 98 0
-288 16 0
-288 167 0
-288 -161 0
-288 42 0
288 -98 -16 -167 161 -42 0
-289 -96 0
-289 -47 0
-289 22 0
-289 -61 0
-289 50 0
289 96 47 -22 61 -50 0
-290 147 0
-290 5 0
-290 73 0
-290 165 0
-290 -8 0
290 -147 -5 -73 -165 8 0
286 287 288 289 290 0
-291 73 0
-291 13 0
-291 -121 0
-291 85 0
-291 -179 0
291 -73 -13 121 -85 179 0
-292 -144 0
-292 133 0
-292 61 0
-292 125 0
-292 158 0
292 144 -133 -61 -125 -158 0
-293 152 0
-293 -7 0
-293 -174 0
-293 104 0
-293 24 0
293 -152 7 174 -104 -24 0
-294 -3 0
-294 30 0
-294 -47 0
-294 -185 0
-294 -123 0
294 3 -30 47 185 123 0
-295 -30 0
-295 22 0
-295 -134 0
-295 35 0
-295 -117 0
295 30 -22 134 -35 117 0
291 292 293 294 295 0
-296 -188 0
-296 -183 0
-296 64 0
-296 129 0
-296 49 0
296 188 183 -64 -129 -49 0
-297 -134 0
-297 -135 0
-297 104 0
-297 -37 0
-297 146 0
297 134 135 -104 37 -146 0
-298 -53 0
-298 -172 0
-298 31 0
-298 183 0
-298 134 0
298 53 172 -31 -183 -134 0
-299 94 0
-299 -32 0
-299 87 0
-299 24 0
-299 48 0
299 -94 32 -87 -24 -48 0
-300 -119 0
-300 -10 0
-300 -46 0
-300 97 0
-300 141 0
300 119 10 46 -97 -141 0
296 297 298 299 300 0
-301 140 0
-301 91 0
-301 165 0
-301 -87 0
-301 -157 0
301 -140 -91 -165 87 157 0
-302 171 0
-302 55 0
-302 -175 0
-302 -8 0
-302 -127 0
302 -171 -55 175 8 127 0
-303 -13 0
-303 -91 0
-303 2 0
-303 -26 0
-303 115 0
303 13 91 -2 26 -115 0
-304 -149 0
-304 -57 0
-304 -22 0
-304 15 0
-304 93 0
304 149 57 22 -15 -93 0
-305 98 0
-305 99 0
-305 -27 0
-305 13 0
-305 9 0
305 -98 -99 27 -13 -9 0
301 302 303 304 305 0
-306 -151 0
-306 41 0
-306 -115 0
-306 -171 0
-306 -1 0
306 151 -41 115 171 1 0
-307 172 0
-307 -2 0
-307 -16 0
-307 -152 0
-307 40 0
307 -172 2 16 152 -40 0
-308 -87 0
-308 -150 0
-308 -159 0
-308 -90 0
-308 -39 0
308 87 150 159 90 39 0
-309 -139 0
-309 -145 0
-309 -32 0
-309 24 0
-309 2 0
309 139 145 32 -24 -2 0
-310 -103 0
-310 -164 0
-310 -21 0
-310 -2 0
-310 1 0
310 103 164 21 2 -1 0
306 307 308 309 310 0
-311 73 0
-311 -3 0
-311 119 0
-311 55 0
-311 41 0
311 -73 3 -119 -55 -41 0
-312 104 0
-312 139 0
-312 183 0
-312 123 0
-312 58 0
312 -104 -139 -183 -123 -58 0
-313 171 0
-313 98 0
-313 -14 0
-313 -22 0
-313 83 0
313 -171 -98 14 22 -83 0
-314 100 0
-314 -5 0
-314 -61 0
-314 -129 0
-314 -66 0
314 -100 5 61 129 66 0
-315 -187 0
-315 165 0
-315 31 0
-315 -171 0
-315 -6 0
315 187 -165 -31 171 6 0
311 312 313 314 315 0
-316 -160 0
-316 67 0
-316 -22 0
-316 29 0
-316 -150 0
316 160 -67 22 -29 150 0
-317 -173 0
-317 105 0
-317 -22 0
-317 -84 0
-317 -155 0
317 173 -105 22 84 155 0
-318 104 0
-318 84 0
-318 11 0
-318 -75 0
-318 25 0
318 -104 -84 -11 75 -25 0
-319 -177 0
-319 -11 0
-319 -52 0
-319 75 0
-319 -54 0
319 177 11 52 -75 54 0
-320 -178 0
-320 66 0
-320 -3 0
-320 123 0
-320 96 0
320 178 -66 3 -123 -96 0
316 317 318 319 320 0
-321 152 0
-321 149 0
-321 -1 0
-321 -30 0
-321 7 0
321 -152 -149 1 30 -7 0
-322 20 0
-322 -91 0
-322 143 0
-322 136 0
-322 -99 0
322 -20 91 -143 -136 99 0
-323 80 0
-323 46 0
-323 44 0
-323 122 0
-323 113 0
323 -80 -46 -44 -122 -113 0
-324 -13 0
-324 -40 0
-324 157 0
-324 -1 0
-324 -44 0
324 13 40 -157 1 44 0
-325 160 0
-325 162 0
-325 103 0
-325 49 0
-325 64 0
325 -160 -162 -103 -49 -64 0
321 322 323 324 325 0
-326 140 0
-326 185 0
-326 -115 0
-326 46 0
-326 -78 0
326 -140 -185 115 -46 78 0
-327 -160 0
-327 55 0
-327 58 0
-327 82 0
-327 40 0
327 160 -55 -58 -82 -40 0
-328 65 0
-328 -75 0
-328 -108 0
-328 -114 0
-328 -174 0
328 -65 75 108 114 174 0
-329 102 0
-329 61 0
-329 81 0
-329 -15 0
-329 69 0
329 -102 -61 -81 15 -69 0
-330 -118 0
-330 -185 0
-330 142 0
-330 61 0
-330 143 0
330 118 185 -142 -61 -143 0
326 327 328 329 330 0
-331 -21 0
-331 136 0
-331 -2 0
-331 69 0
-331 186 0
331 21 -136 2 -69 -186 0
-332 -165 0
-332 -98 0
-332 132 0
-332 -176 0
-332 -48 0
332 165 98 -132 176 48 0
-333 138 0
-333 82 0
-333 -169 0
-333 -49 0
-333 -62 0
333 -138 -82 169 49 62 0
-334 -53 0
-334 -68 0
-334 -74 0
-334 -79 0
-334 103 0
334 53 68 74 79 -103 0
-335 -89 0
-335 -68 0
-335 6 0
-335 163 0
-335 37 0
335 89 68 -6 -163 -37 0
331 332 333 334 335 0
-336 157 0
-336 27 0
-336 112 0
-336 17 0
-336 -62 0
336 -157 -27 -112 -17 62 0
-337 150 0
-337 3 0
-337 -134 0
-337 -11 0
-337 -162 0
337 -150 -3 134 11 162 0
-338 115 0
-338 -82 0
-338 113 0
-338 21 0
-338 -55 0
338 -115 82 -113 -21 55 0
-339 -108 0
-339 58 0
-339 -166 0
-339 -78 0
-339 -122 0
339 108 -58 166 78 122 0
-340 129 0
-340 152 0
-340 -106 0
-340 -134 0
-340 -114 0
340 -129 -152 106 134 114 0
336 337 338 339 340 0
-341 -115 0
-341 190 0
-341 -93 0
-341 85 0
-341 130 0
341 115 -190 93 -85 -130 0
-342 20 0
-342 -145 0
-342 -95 0
-342 88 0
-342 172 0
342 -20 145 95 -88 -172 0
-343 186 0
-343 72 0
-343 -45 0
-343 103 0
-343 -82 0
343 -186 -72 45 -103 82 0
-344 -129 0
-344 -24 0
-344 106 0
-344 -130 0
-344 -82 0
344 129 24 -106 130 82 0
-345 15 0
-345 -143 0
-345 26 0
-345 138 0
-345 -56 0
345 -15 143 -26 -138 56 0
341 342 343 344 345 0
-346 117 0
-346 -137 0
-346 145 0
-346 34 0
-346 38 0
346 -117 137 -145 -34 -38 0
-347 56 0
-347 8 0
-347 -105 0
-347 163 0
-347 189 0
347 -56 -8 105 -163 -189 0
-348 -146 0
-348 -59 0
-348 -5 0
-348 92 0
-348 -114 0
348 146 59 5 -92 114 0
-349 -15 0
-349 21 0
-349 -98 0
-349 -154 0
-349 -183 0
349 15 -21 98 154 183 0
-350 190 0
-350 137 0
-350 -176 0
-350 175 0
-350 107 0
350 -190 -137 176 -175 -107 0
346 347 348 349 350 0
-351 185 0
-351 -88 0
-351 -111 0
-351 -186 0
-351 -123 0
351 -185 88 111 186 123 0
-352 -189 0
-352 121 0
-352 -54 0
-352 -127 0
-352 -164 0
352 189 -121 54 127 164 0
-353 183 0
-353 -64 0
-353 -103 0
-353 -51 0
-353 -37 0
353 -183 64 103 51 37 0
-354 -27 0
-354 146 0
-354 -26 0
-354 -186 0
-354 -187 0
354 27 -146 26 186 187 0
-355 -113 0
-355 99 0
-355 -59 0
-355 -146 0
-355 48 0
355 113 -99 59 146 -48 0
351 352 353 354 355 0
-356 -93 0
-356 38 0
-356 20 0
-356 56 0
-356 -118 0
356 93 -38 -20 -56 118 0
-357 1 0
-357 -22 0
-357 -46 0
-357 -78 0
-357 -65 0
357 -1 22 46 78 65 0
-358 -11 0
-358 -168 0
-358 23 0
-358 156 0
-358 95 0
358 11 168 -23 -156 -95 0
-359 -167 0
-359 -75 0
-359 -162 0
-359 -165 0
-359 134 0
359 167 75 162 165 -134 0
-360 133 0
-360 51 0
-360 115 0
-360 82 0
-360 -17 0
360 -133 -51 -115 -82 17 0
356 357 358 359 360 0
-361 -168 0
-361 -115 0
-361 108 0
-361 -151 0
-361 -5 0
361 168 115 -108 151 5 0
-362 145 0
-362 105 0
-362 51 0
-362 -1 0
-362 90 0
362 -145 -105 -51 1 -90 0
-363 -11 0
-363 62 0
-363 66 0
-363 88 0
-363 124 0
363 11 -62 -66 -88 -124 0
-364 159 0
-364 180 0
-364 93 0
-364 87 0
-364 63 0
364 -159 -180 -93 -87 -63 0
-365 25 0
-365 -142 0
-365 -36 0
-365 37 0
-365 147 0
365 -25 142 36 -37 -147 0
361 362 363 364 365 0
-366 162 0
-366 151 0
-366 -39 0
-366 -18 0
-366 17 0
366 -162 -151 39 18 -17 0
-367 -90 0
-367 -168 0
-367 9 0
-367 -187 0
-367 -119 0
367 90 168 -9 187 119 0
-368 -34 0
-368 -152 0
-368 127 0
-368 -151 0
-368 163 0
368 34 152 -127 151 -163 0
-369 121 0
-369 -26 0
-369 107 0
-369 168 0
-369 -94 0
369 -121 26 -107 -168 94 0
-370 70 0
-370 173 0
-370 98 0
-370 -117 0
-370 71 0
370 -70 -173 -98 117 -71 0
366 367 368 369 370 0
-371 78 0
-371 -106 0
-371 54 0
-371 36 0
-371 117 0
371 -78 106 -54 -36 -117 0
-372 -130 0
-372 147 0
-372 10 0
-372 4 0
-372 108 0
372 130 -147 -10 -4 -108 0
-373 -26 0
-373 -34 0
-373 110 0
-373 -174 0
-373 -19 0
373 26 34 -110 174 19 0
-374 53 0
-374 167 0
-374 119 0
-374 -10 0
-374 -43 0
374 -53 -167 -119 10 43 0
-375 77 0
-375 -106 0
-375 -170 0
-375 -136 0
-375 145 0
375 -77 106 170 136 -145 0
371 372 373 374 375 0
-376 151 0
-376 -67 0
-376 -103 0
-376 -108 0
-376 -183 0
376 -151 67 103 108 183 0
-377 -124 0
-377 -185 0
-377 -121 0
-377 73 0
-377 -104 0
377 124 185 121 -73 104 0
-378 -38 0
-378 -111 0
-378 -29 0
-378 124 0
-378 140 0
378 38 111 29 -124 -140 0
-379 49 0
-379 3 0
-379 57 0
-379 -173 0
-379 -127 0
379 -49 -3 -57 173 127 0
-380 34 0
-380 164 0
-380 -12 0
-380 156 0
-380 -71 0
380 -34 -164 12 -156 71 0
376 377 378 379 380 0
-381 68 0
-381 72 0
-381 52 0
-381 -92 0
-381 181 0
381 -68 -72 -52 92 -181 0
-382 -11 0
-382 15 0
-382 -186 0
-382 -24 0
-382 -79 0
382 11 -15 186 24 79 0
-383 111 0
-383 -65 0
-383 -77 0
-383 48 0
-383 133 0
383 -111 65 77 -48 -133 0
-384 183 0
-384 100 0
-384 -121 0
-384 -57 0
-384 -124 0
384 -183 -100 121 57 124 0
-385 -131 0
-385 67 0
-385 -58 0
-385 137 0
-385 -99 0
385 131 -67 58 -137 99 0
381 382 383 384 385 0
-386 -9 0
-386 123 0
-386 -19 0
-386 1 0
-386 -174 0
386 9 -123 19 -1 174 0
-387 131 0
-387 -93 0
-387 41 0
-387 -13 0
-387 19 0
387 -131 93 -41 13 -19 0
-388 -52 0
-388 66 0
-388 -163 0
-388 134 0
-388 -172 0
388 52 -66 163 -134 172 0
-389 -60 0
-389 -131 0
-389 159 0
-389 -73 0
-389 179 0
389 60 131 -159 73 -179 0
-390 -176 0
-390 -57 0
-390 120 0
-390 53 0
-390 65 0
390 176 57 -120 -53 -65 0
386 387 388 389 390 0
-391 82 0
-391 -176 0
-391 14 0
-391 156 0
-391 -99 0
391 -82 176 -14 -156 99 0
-392 -148 0
-392 155 0
-392 56 0
-392 -172 0
-392 52 0
392 148 -155 -56 172 -52 0
-393 -178 0
-393 -115 0
-393 81 0
-393 -65 0
-393 47 0
393 178 115 -81 65 -47 0
-394 -106 0
-394 90 0
-394 159 0
-394 184 0
-394 96 0
394 106 -90 -159 -184 -96 0
-395 8 0
-395 189 0
-395 -13 0
-395 -47 0
-395 -161 0
395 -8 -189 13 47 161 0
391 392 393 394 395 0
-396 -45 0
-396 147 0
-396 107 0
-396 179 0
-396 116 0
396 45 -147 -107 -179 -116 0
-397 23 0
-397 182 0
-397 130 0
-397 83 0
-397 -187 0
397 -23 -182 -130 -83 187 0
-398 -146 0
-398 -95 0
-398 -50 0
-398 -61 0
-398 42 0
398 146 95 50 61 -42 0
-399 -187 0
-399 -183 0
-399 115 0
-399 -108 0
-399 163 0
399 187 183 -115 108 -163 0
-400 101 0
-400 -71 0
-400 177 0
-400 -21 0
-400 -149 0
400 -101 71 -177 21 149 0
396 397 398 399 400 0
-401 89 0
-401 125 0
-401 186 0
-401 -3 0
-401 95 0
401 -89 -125 -186 3 -95 0
-402 89 0
-402 72 0
-402 -17 0
-402 -53 0
-402 -23 0
402 -89 -72 17 53 23 0
-403 -57 0
-403 -188 0
-403 4 0
-403 -3 0
-403 123 0
403 57 188 -4 3 -123 0
-404 179 0
-404 -75 0
-404 157 0
-404 -38 0
-404 21 0
404 -179 75 -157 38 -21 0
-405 -112 0
-405 -62 0
-405 2 0
-405 -139 0
-405 87 0
405 112 62 -2 139 -87 0
401 402 403 404 405 0
-406 171 0
-406 -98 0
-406 -43 0
-406 -25 0
-406 185 0
406 -171 98 43 25 -185 0
-407 -76 0
-407 -141 0
-407 -78 0
-407 131 0
-407 -16 0
407 76 141 78 -131 16 0
-408 -1 0
-408 112 0
-408 11 0
-408 119 0
-408 -138 0
408 1 -112 -11 -119 138 0
-409 60 0
-409 -142 0
-409 -49 0
-409 -20 0
-409 -31 0
409 -60 142 49 20 31 0
-410 -122 0
-410 -82 0
-410 -124 0
-410 160 0
-410 40 0
410 122 82 124 -160 -40 0
406 407 408 409 410 0
-411 -83 0
-411 -94 0
-411 64 0
-411 -146 0
-411 1 0
411 83 94 -64 146 -1 0
-412 96 0
-412 131 0
-412 185 0
-412 84 0
-412 10 0
412 -96 -131 -185 -84 -10 0
-413 45 0
-413 -12 0
-413 123 0
-413 -48 0
-413 162 0
413 -45 12 -123 48 -162 0
-414 19 0
-414 -165 0
-414 -80 0
-414 29 0
-414 -93 0
414 -19 165 80 -29 93 0
-415 -174 0
-415 -41 0
-415 -68 0
-415 -71 0
-415 -118 0
415 174 41 68 71 118 0
411 412 413 414 415 0
-416 -35 0
-416 27 0
-416 7 0
-416 -170 0
-416 -147 0
416 35 -27 -7 170 147 0
-417 143 0
-417 -166 0
-417 117 0
-417 80 0
-417 160 0
417 -143 166 -117 -80 -160 0
-418 19 0
-418 -29 0
-418 147 0
-418 -109 0
-418 -138 0
418 -19 29 -147 109 138 0
-419 149 0
-419 175 0
-419 40 0
-419 -46 0
-419 161 0
419 -149 -175 -40 46 -161 0
-420 171 0
-420 26 0
-420 -74 0
-420 -75 0
-420 -175 0
420 -171 -26 74 75 175 0
416 417 418 419 420 0
-421 -48 0
-421 -118 0
-421 -78 0
-421 49 0
-421 24 0
421 48 118 78 -49 -24 0
-422 -161 0
-422 -3 0
-422 -99 0
-422 190 0
-422 -142 0
422 161 3 99 -190 142 0
-423 132 0
-423 133 0
-423 -58 0
-423 51 0
-423 -55 0
423 -132 -133 58 -51 55 0
-424 -135 0
-424 116 0
-424 -76 0
-424 -17 0
-424 3 0
424 135 -116 76 17 -3 0
-425 -120 0
-425 -143 0
-425 -118 0
-425 165 0
-425 -61 0
425 120 143 118 -165 61 0
421 422 423 424 425 0
-426 42 0
-426 133 0
-426 186 0
-426 67 0
-426 50 0
426 -42 -133 -186 -67 -50 0
-427 82 0
-427 -42 0
-427 -108 0
-427 126 0
-427 102 0
427 -82 42 108 -126 -102 0
-428 -159 0
-428 152 0
-428 165 0
-428 78 0
-428 105 0
428 159 -152 -165 -78 -105 0
-429 -17 0
-429 69 0
-429 170 0
-429 101 0
-429 34 0
429 17 -69 -170 -101 -34 0
-430 124 0
-430 -86 0
-430 -190 0
-430 -177 0
-430 85 0
430 -124 86 190 177 -85 0
426 427 428 429 430 0
